p cnf 43 144
-1 -2 -3 0
1 2 -3 0
-1 2 3 0
1 -2 3 0
-4 3 0
-4 3 0
-3 4 0
-6 5 0
-6 -5 0
-7 4 0
-7 -6 0
-4 6 7 0
-10 -8 0
-10 9 0
8 -9 10 0
-10 -11 -12 0
10 11 -12 0
-10 11 12 0
10 -11 12 0
-9 -13 -14 0
9 13 -14 0
-9 13 14 0
9 -13 14 0
-2 14 -15 0
2 -14 -15 0
-2 -14 15 0
2 14 15 0
12 -15 -16 0
-12 15 -16 0
12 15 16 0
-12 -15 16 0
17 -13 0
17 -1 0
13 1 -17 0
18 16 0
18 -17 0
-16 17 -18 0
19 -7 0
19 -18 0
7 18 -19 0
11 -10 -20 0
-11 10 -20 0
11 10 20 0
-11 -10 20 0
-21 -13 0
-21 10 0
13 -10 21 0
-22 -20 0
-22 -21 0
20 21 22 0
23 -11 0
23 8 0
11 -8 -23 0
22 23 -24 0
-22 -23 -24 0
22 -23 24 0
-22 23 24 0
26 -25 0
26 11 0
25 -11 -26 0
29 -3 0
29 28 0
3 -28 -29 0
-3 1 -30 0
3 -1 -30 0
-3 -1 30 0
3 1 30 0
31 -29 0
31 -30 0
29 30 -31 0
-32 27 0
-32 31 0
-27 -31 32 0
-10 33 0
10 33 0
34 -32 0
34 33 0
32 -33 -34 0
-26 -34 -35 0
26 34 -35 0
-26 34 35 0
26 -34 35 0
36 -24 0
36 -35 0
24 35 -36 0
37 1 0
37 -2 0
-1 2 -37 0
5 8 -38 0
-5 -8 -38 0
5 -8 38 0
-5 8 38 0
-39 38 0
-39 5 0
-38 -5 39 0
-40 10 0
-40 -39 0
-10 39 40 0
37 40 -41 0
-37 -40 -41 0
37 -40 41 0
-37 40 41 0
-36 -41 -42 0
36 41 -42 0
-36 41 42 0
36 -41 42 0
19 -42 -43 0
-19 42 -43 0
19 42 43 0
-19 -42 43 0
-29 -31 -6 20 -32 0
35 25 -40 7 18 -23 0
25 30 0
1 -33 -24 -2 43 0
-12 -3 -4 10 42 -17 0
12 -31 -32 43 0
-3 -18 42 -8 0
-34 36 0
38 -23 0
-42 -13 -29 0
18 36 -3 -19 10 29 0
-2 -1 7 -36 11 -13 0
-22 23 -4 -42 40 -31 0
-38 -16 2 -1 0
-35 10 -18 -1 0
-5 -8 -36 22 -24 0
16 -26 28 4 -17 0
-31 -9 -43 -28 0
-6 31 -12 39 -42 0
14 -2 17 3 0
39 -21 34 0
-43 -38 25 29 -14 -39 0
-27 -9 17 21 -14 0
-17 41 0
36 -21 43 16 26 0
2 23 -3 0
16 -32 0
11 -8 -6 35 -15 0
-13 -11 0
14 29 42 -20 0
-23 -26 -22 32 15 0
14 -6 0
-20 -10 0
43 0
